
&CONTROL
  calculation = 'scf'
  verbosity = 'high'
  !restart_mode = 'from_scratch'
  restart_mode = 'restart'
  wf_collect = .false.
  ! nstep = 150
  prefix = 'pwscf'
  pseudo_dir = 'PSEUDOPOTENTIALS'
  etot_conv_thr = 1.d-6
  forc_conv_thr = 1.d-6
!  dipfield = .true.
!  lelfield = true
/
&SYSTEM
  ibrav = 0
  nat = 3
  ntyp = 3
  !nbnd = NBAND
  !tot_charge = TOTCHARGE
  !tot_ magnetization = -1
  ecutrho = 3.2d+2   
  ecutwfc = 8.0d+1
  nosym = .true.
!  emaxpos = .95 
!  edir = 3 
!  eopreg = .05 
  occupations = 'smearing'
  smearing = 'gaussian'
  degauss = 1.d-02
  input_dft = 'pbe'
!  vdw_corr = 'dft-d3'
!  tot_charge = +1
/
&ELECTRONS
  electron_maxstep = 20
!  conv_thr = 1.d-8
  mixing_mode = 'plain'
  mixing_beta = 7.d-1
!  diagonalization = 'david'
!  efield = 0.5 
!  efield_cart = 0.5 0 0 
/
&IONS
!  ion_dynamics = 'bfgs'
/

ATOMIC_SPECIES
Mn 0.0 Mn_pbe_v1.5.uspp.F.UPF
Ni 0.0 Ni_pbe_v1.4.uspp.F.UPF
As 0.0 As.pbe-n-rrkjus_psl.0.2.UPF


ATOMIC_POSITIONS crystal
As 0.499999109351982 0.0 0.499999109351982 
Mn 0.0 0.0 0.0 
Ni 0.749998664027974 0.499999109351982 0.249999554675991 


K_POINTS automatic
5 5 5 0 0 0 

CELL_PARAMETERS angstrom
2.806945 -2.806945 0.0
-2.806945 0.0 -2.806945
2.806945 2.806945 0.0
